Minimize
 obj: 0 X_0_1
Subject To
 out_0:
  + 1 X_0_1 + 1 X_0_2 + 1 X_0_3 + 1 X_0_4 + 1 X_0_5 + 1 X_0_6 + 1 X_0_7 + 1 X_0_8
  + 1 X_0_9 + 1 X_0_10 + 1 X_0_11 + 1 X_0_12 + 1 X_0_13 + 1 X_0_14
  = 1
 in_0:
  + 1 X_1_0 + 1 X_2_0 + 1 X_3_0 + 1 X_4_0 + 1 X_5_0 + 1 X_6_0 + 1 X_7_0 + 1 X_8_0
  + 1 X_9_0 + 1 X_10_0 + 1 X_11_0 + 1 X_12_0 + 1 X_13_0 + 1 X_14_0
  = 1
 out_1:
  + 1 X_1_0 + 1 X_1_2 + 1 X_1_3 + 1 X_1_4 + 1 X_1_5 + 1 X_1_6 + 1 X_1_7 + 1 X_1_8
  + 1 X_1_9 + 1 X_1_10 + 1 X_1_11 + 1 X_1_12 + 1 X_1_13 + 1 X_1_14
  = 1
 in_1:
  + 1 X_0_1 + 1 X_2_1 + 1 X_3_1 + 1 X_4_1 + 1 X_5_1 + 1 X_6_1 + 1 X_7_1 + 1 X_8_1
  + 1 X_9_1 + 1 X_10_1 + 1 X_11_1 + 1 X_12_1 + 1 X_13_1 + 1 X_14_1
  = 1
 out_2:
  + 1 X_2_0 + 1 X_2_1 + 1 X_2_3 + 1 X_2_4 + 1 X_2_5 + 1 X_2_6 + 1 X_2_7 + 1 X_2_8
  + 1 X_2_9 + 1 X_2_10 + 1 X_2_11 + 1 X_2_12 + 1 X_2_13 + 1 X_2_14
  = 1
 in_2:
  + 1 X_0_2 + 1 X_1_2 + 1 X_3_2 + 1 X_4_2 + 1 X_5_2 + 1 X_6_2 + 1 X_7_2 + 1 X_8_2
  + 1 X_9_2 + 1 X_10_2 + 1 X_11_2 + 1 X_12_2 + 1 X_13_2 + 1 X_14_2
  = 1
 out_3:
  + 1 X_3_0 + 1 X_3_1 + 1 X_3_2 + 1 X_3_4 + 1 X_3_5 + 1 X_3_6 + 1 X_3_7 + 1 X_3_8
  + 1 X_3_9 + 1 X_3_10 + 1 X_3_11 + 1 X_3_12 + 1 X_3_13 + 1 X_3_14
  = 1
 in_3:
  + 1 X_0_3 + 1 X_1_3 + 1 X_2_3 + 1 X_4_3 + 1 X_5_3 + 1 X_6_3 + 1 X_7_3 + 1 X_8_3
  + 1 X_9_3 + 1 X_10_3 + 1 X_11_3 + 1 X_12_3 + 1 X_13_3 + 1 X_14_3
  = 1
 out_4:
  + 1 X_4_0 + 1 X_4_1 + 1 X_4_2 + 1 X_4_3 + 1 X_4_5 + 1 X_4_6 + 1 X_4_7 + 1 X_4_8
  + 1 X_4_9 + 1 X_4_10 + 1 X_4_11 + 1 X_4_12 + 1 X_4_13 + 1 X_4_14
  = 1
 in_4:
  + 1 X_0_4 + 1 X_1_4 + 1 X_2_4 + 1 X_3_4 + 1 X_5_4 + 1 X_6_4 + 1 X_7_4 + 1 X_8_4
  + 1 X_9_4 + 1 X_10_4 + 1 X_11_4 + 1 X_12_4 + 1 X_13_4 + 1 X_14_4
  = 1
 out_5:
  + 1 X_5_0 + 1 X_5_1 + 1 X_5_2 + 1 X_5_3 + 1 X_5_4 + 1 X_5_6 + 1 X_5_7 + 1 X_5_8
  + 1 X_5_9 + 1 X_5_10 + 1 X_5_11 + 1 X_5_12 + 1 X_5_13 + 1 X_5_14
  = 1
 in_5:
  + 1 X_0_5 + 1 X_1_5 + 1 X_2_5 + 1 X_3_5 + 1 X_4_5 + 1 X_6_5 + 1 X_7_5 + 1 X_8_5
  + 1 X_9_5 + 1 X_10_5 + 1 X_11_5 + 1 X_12_5 + 1 X_13_5 + 1 X_14_5
  = 1
 out_6:
  + 1 X_6_0 + 1 X_6_1 + 1 X_6_2 + 1 X_6_3 + 1 X_6_4 + 1 X_6_5 + 1 X_6_7 + 1 X_6_8
  + 1 X_6_9 + 1 X_6_10 + 1 X_6_11 + 1 X_6_12 + 1 X_6_13 + 1 X_6_14
  = 1
 in_6:
  + 1 X_0_6 + 1 X_1_6 + 1 X_2_6 + 1 X_3_6 + 1 X_4_6 + 1 X_5_6 + 1 X_7_6 + 1 X_8_6
  + 1 X_9_6 + 1 X_10_6 + 1 X_11_6 + 1 X_12_6 + 1 X_13_6 + 1 X_14_6
  = 1
 out_7:
  + 1 X_7_0 + 1 X_7_1 + 1 X_7_2 + 1 X_7_3 + 1 X_7_4 + 1 X_7_5 + 1 X_7_6 + 1 X_7_8
  + 1 X_7_9 + 1 X_7_10 + 1 X_7_11 + 1 X_7_12 + 1 X_7_13 + 1 X_7_14
  = 1
 in_7:
  + 1 X_0_7 + 1 X_1_7 + 1 X_2_7 + 1 X_3_7 + 1 X_4_7 + 1 X_5_7 + 1 X_6_7 + 1 X_8_7
  + 1 X_9_7 + 1 X_10_7 + 1 X_11_7 + 1 X_12_7 + 1 X_13_7 + 1 X_14_7
  = 1
 out_8:
  + 1 X_8_0 + 1 X_8_1 + 1 X_8_2 + 1 X_8_3 + 1 X_8_4 + 1 X_8_5 + 1 X_8_6 + 1 X_8_7
  + 1 X_8_9 + 1 X_8_10 + 1 X_8_11 + 1 X_8_12 + 1 X_8_13 + 1 X_8_14
  = 1
 in_8:
  + 1 X_0_8 + 1 X_1_8 + 1 X_2_8 + 1 X_3_8 + 1 X_4_8 + 1 X_5_8 + 1 X_6_8 + 1 X_7_8
  + 1 X_9_8 + 1 X_10_8 + 1 X_11_8 + 1 X_12_8 + 1 X_13_8 + 1 X_14_8
  = 1
 out_9:
  + 1 X_9_0 + 1 X_9_1 + 1 X_9_2 + 1 X_9_3 + 1 X_9_4 + 1 X_9_5 + 1 X_9_6 + 1 X_9_7
  + 1 X_9_8 + 1 X_9_10 + 1 X_9_11 + 1 X_9_12 + 1 X_9_13 + 1 X_9_14
  = 1
 in_9:
  + 1 X_0_9 + 1 X_1_9 + 1 X_2_9 + 1 X_3_9 + 1 X_4_9 + 1 X_5_9 + 1 X_6_9 + 1 X_7_9
  + 1 X_8_9 + 1 X_10_9 + 1 X_11_9 + 1 X_12_9 + 1 X_13_9 + 1 X_14_9
  = 1
 out_10:
  + 1 X_10_0 + 1 X_10_1 + 1 X_10_2 + 1 X_10_3 + 1 X_10_4 + 1 X_10_5 + 1 X_10_6 + 1 X_10_7
  + 1 X_10_8 + 1 X_10_9 + 1 X_10_11 + 1 X_10_12 + 1 X_10_13 + 1 X_10_14
  = 1
 in_10:
  + 1 X_0_10 + 1 X_1_10 + 1 X_2_10 + 1 X_3_10 + 1 X_4_10 + 1 X_5_10 + 1 X_6_10 + 1 X_7_10
  + 1 X_8_10 + 1 X_9_10 + 1 X_11_10 + 1 X_12_10 + 1 X_13_10 + 1 X_14_10
  = 1
 out_11:
  + 1 X_11_0 + 1 X_11_1 + 1 X_11_2 + 1 X_11_3 + 1 X_11_4 + 1 X_11_5 + 1 X_11_6 + 1 X_11_7
  + 1 X_11_8 + 1 X_11_9 + 1 X_11_10 + 1 X_11_12 + 1 X_11_13 + 1 X_11_14
  = 1
 in_11:
  + 1 X_0_11 + 1 X_1_11 + 1 X_2_11 + 1 X_3_11 + 1 X_4_11 + 1 X_5_11 + 1 X_6_11 + 1 X_7_11
  + 1 X_8_11 + 1 X_9_11 + 1 X_10_11 + 1 X_12_11 + 1 X_13_11 + 1 X_14_11
  = 1
 out_12:
  + 1 X_12_0 + 1 X_12_1 + 1 X_12_2 + 1 X_12_3 + 1 X_12_4 + 1 X_12_5 + 1 X_12_6 + 1 X_12_7
  + 1 X_12_8 + 1 X_12_9 + 1 X_12_10 + 1 X_12_11 + 1 X_12_13 + 1 X_12_14
  = 1
 in_12:
  + 1 X_0_12 + 1 X_1_12 + 1 X_2_12 + 1 X_3_12 + 1 X_4_12 + 1 X_5_12 + 1 X_6_12 + 1 X_7_12
  + 1 X_8_12 + 1 X_9_12 + 1 X_10_12 + 1 X_11_12 + 1 X_13_12 + 1 X_14_12
  = 1
 out_13:
  + 1 X_13_0 + 1 X_13_1 + 1 X_13_2 + 1 X_13_3 + 1 X_13_4 + 1 X_13_5 + 1 X_13_6 + 1 X_13_7
  + 1 X_13_8 + 1 X_13_9 + 1 X_13_10 + 1 X_13_11 + 1 X_13_12 + 1 X_13_14
  = 1
 in_13:
  + 1 X_0_13 + 1 X_1_13 + 1 X_2_13 + 1 X_3_13 + 1 X_4_13 + 1 X_5_13 + 1 X_6_13 + 1 X_7_13
  + 1 X_8_13 + 1 X_9_13 + 1 X_10_13 + 1 X_11_13 + 1 X_12_13 + 1 X_14_13
  = 1
 out_14:
  + 1 X_14_0 + 1 X_14_1 + 1 X_14_2 + 1 X_14_3 + 1 X_14_4 + 1 X_14_5 + 1 X_14_6 + 1 X_14_7
  + 1 X_14_8 + 1 X_14_9 + 1 X_14_10 + 1 X_14_11 + 1 X_14_12 + 1 X_14_13
  = 1
 in_14:
  + 1 X_0_14 + 1 X_1_14 + 1 X_2_14 + 1 X_3_14 + 1 X_4_14 + 1 X_5_14 + 1 X_6_14 + 1 X_7_14
  + 1 X_8_14 + 1 X_9_14 + 1 X_10_14 + 1 X_11_14 + 1 X_12_14 + 1 X_13_14
  = 1
 mtz_1_2:
  + 1 U1 - 1 U2 + 14 X_1_2
  <= 13
 mtz_1_3:
  + 1 U1 - 1 U3 + 14 X_1_3
  <= 13
 mtz_1_4:
  + 1 U1 - 1 U4 + 14 X_1_4
  <= 13
 mtz_1_5:
  + 1 U1 - 1 U5 + 14 X_1_5
  <= 13
 mtz_1_6:
  + 1 U1 - 1 U6 + 14 X_1_6
  <= 13
 mtz_1_7:
  + 1 U1 - 1 U7 + 14 X_1_7
  <= 13
 mtz_1_8:
  + 1 U1 - 1 U8 + 14 X_1_8
  <= 13
 mtz_1_9:
  + 1 U1 - 1 U9 + 14 X_1_9
  <= 13
 mtz_1_10:
  + 1 U1 - 1 U10 + 14 X_1_10
  <= 13
 mtz_1_11:
  + 1 U1 - 1 U11 + 14 X_1_11
  <= 13
 mtz_1_12:
  + 1 U1 - 1 U12 + 14 X_1_12
  <= 13
 mtz_1_13:
  + 1 U1 - 1 U13 + 14 X_1_13
  <= 13
 mtz_1_14:
  + 1 U1 - 1 U14 + 14 X_1_14
  <= 13
 mtz_2_1:
  + 1 U2 - 1 U1 + 14 X_2_1
  <= 13
 mtz_2_3:
  + 1 U2 - 1 U3 + 14 X_2_3
  <= 13
 mtz_2_4:
  + 1 U2 - 1 U4 + 14 X_2_4
  <= 13
 mtz_2_5:
  + 1 U2 - 1 U5 + 14 X_2_5
  <= 13
 mtz_2_6:
  + 1 U2 - 1 U6 + 14 X_2_6
  <= 13
 mtz_2_7:
  + 1 U2 - 1 U7 + 14 X_2_7
  <= 13
 mtz_2_8:
  + 1 U2 - 1 U8 + 14 X_2_8
  <= 13
 mtz_2_9:
  + 1 U2 - 1 U9 + 14 X_2_9
  <= 13
 mtz_2_10:
  + 1 U2 - 1 U10 + 14 X_2_10
  <= 13
 mtz_2_11:
  + 1 U2 - 1 U11 + 14 X_2_11
  <= 13
 mtz_2_12:
  + 1 U2 - 1 U12 + 14 X_2_12
  <= 13
 mtz_2_13:
  + 1 U2 - 1 U13 + 14 X_2_13
  <= 13
 mtz_2_14:
  + 1 U2 - 1 U14 + 14 X_2_14
  <= 13
 mtz_3_1:
  + 1 U3 - 1 U1 + 14 X_3_1
  <= 13
 mtz_3_2:
  + 1 U3 - 1 U2 + 14 X_3_2
  <= 13
 mtz_3_4:
  + 1 U3 - 1 U4 + 14 X_3_4
  <= 13
 mtz_3_5:
  + 1 U3 - 1 U5 + 14 X_3_5
  <= 13
 mtz_3_6:
  + 1 U3 - 1 U6 + 14 X_3_6
  <= 13
 mtz_3_7:
  + 1 U3 - 1 U7 + 14 X_3_7
  <= 13
 mtz_3_8:
  + 1 U3 - 1 U8 + 14 X_3_8
  <= 13
 mtz_3_9:
  + 1 U3 - 1 U9 + 14 X_3_9
  <= 13
 mtz_3_10:
  + 1 U3 - 1 U10 + 14 X_3_10
  <= 13
 mtz_3_11:
  + 1 U3 - 1 U11 + 14 X_3_11
  <= 13
 mtz_3_12:
  + 1 U3 - 1 U12 + 14 X_3_12
  <= 13
 mtz_3_13:
  + 1 U3 - 1 U13 + 14 X_3_13
  <= 13
 mtz_3_14:
  + 1 U3 - 1 U14 + 14 X_3_14
  <= 13
 mtz_4_1:
  + 1 U4 - 1 U1 + 14 X_4_1
  <= 13
 mtz_4_2:
  + 1 U4 - 1 U2 + 14 X_4_2
  <= 13
 mtz_4_3:
  + 1 U4 - 1 U3 + 14 X_4_3
  <= 13
 mtz_4_5:
  + 1 U4 - 1 U5 + 14 X_4_5
  <= 13
 mtz_4_6:
  + 1 U4 - 1 U6 + 14 X_4_6
  <= 13
 mtz_4_7:
  + 1 U4 - 1 U7 + 14 X_4_7
  <= 13
 mtz_4_8:
  + 1 U4 - 1 U8 + 14 X_4_8
  <= 13
 mtz_4_9:
  + 1 U4 - 1 U9 + 14 X_4_9
  <= 13
 mtz_4_10:
  + 1 U4 - 1 U10 + 14 X_4_10
  <= 13
 mtz_4_11:
  + 1 U4 - 1 U11 + 14 X_4_11
  <= 13
 mtz_4_12:
  + 1 U4 - 1 U12 + 14 X_4_12
  <= 13
 mtz_4_13:
  + 1 U4 - 1 U13 + 14 X_4_13
  <= 13
 mtz_4_14:
  + 1 U4 - 1 U14 + 14 X_4_14
  <= 13
 mtz_5_1:
  + 1 U5 - 1 U1 + 14 X_5_1
  <= 13
 mtz_5_2:
  + 1 U5 - 1 U2 + 14 X_5_2
  <= 13
 mtz_5_3:
  + 1 U5 - 1 U3 + 14 X_5_3
  <= 13
 mtz_5_4:
  + 1 U5 - 1 U4 + 14 X_5_4
  <= 13
 mtz_5_6:
  + 1 U5 - 1 U6 + 14 X_5_6
  <= 13
 mtz_5_7:
  + 1 U5 - 1 U7 + 14 X_5_7
  <= 13
 mtz_5_8:
  + 1 U5 - 1 U8 + 14 X_5_8
  <= 13
 mtz_5_9:
  + 1 U5 - 1 U9 + 14 X_5_9
  <= 13
 mtz_5_10:
  + 1 U5 - 1 U10 + 14 X_5_10
  <= 13
 mtz_5_11:
  + 1 U5 - 1 U11 + 14 X_5_11
  <= 13
 mtz_5_12:
  + 1 U5 - 1 U12 + 14 X_5_12
  <= 13
 mtz_5_13:
  + 1 U5 - 1 U13 + 14 X_5_13
  <= 13
 mtz_5_14:
  + 1 U5 - 1 U14 + 14 X_5_14
  <= 13
 mtz_6_1:
  + 1 U6 - 1 U1 + 14 X_6_1
  <= 13
 mtz_6_2:
  + 1 U6 - 1 U2 + 14 X_6_2
  <= 13
 mtz_6_3:
  + 1 U6 - 1 U3 + 14 X_6_3
  <= 13
 mtz_6_4:
  + 1 U6 - 1 U4 + 14 X_6_4
  <= 13
 mtz_6_5:
  + 1 U6 - 1 U5 + 14 X_6_5
  <= 13
 mtz_6_7:
  + 1 U6 - 1 U7 + 14 X_6_7
  <= 13
 mtz_6_8:
  + 1 U6 - 1 U8 + 14 X_6_8
  <= 13
 mtz_6_9:
  + 1 U6 - 1 U9 + 14 X_6_9
  <= 13
 mtz_6_10:
  + 1 U6 - 1 U10 + 14 X_6_10
  <= 13
 mtz_6_11:
  + 1 U6 - 1 U11 + 14 X_6_11
  <= 13
 mtz_6_12:
  + 1 U6 - 1 U12 + 14 X_6_12
  <= 13
 mtz_6_13:
  + 1 U6 - 1 U13 + 14 X_6_13
  <= 13
 mtz_6_14:
  + 1 U6 - 1 U14 + 14 X_6_14
  <= 13
 mtz_7_1:
  + 1 U7 - 1 U1 + 14 X_7_1
  <= 13
 mtz_7_2:
  + 1 U7 - 1 U2 + 14 X_7_2
  <= 13
 mtz_7_3:
  + 1 U7 - 1 U3 + 14 X_7_3
  <= 13
 mtz_7_4:
  + 1 U7 - 1 U4 + 14 X_7_4
  <= 13
 mtz_7_5:
  + 1 U7 - 1 U5 + 14 X_7_5
  <= 13
 mtz_7_6:
  + 1 U7 - 1 U6 + 14 X_7_6
  <= 13
 mtz_7_8:
  + 1 U7 - 1 U8 + 14 X_7_8
  <= 13
 mtz_7_9:
  + 1 U7 - 1 U9 + 14 X_7_9
  <= 13
 mtz_7_10:
  + 1 U7 - 1 U10 + 14 X_7_10
  <= 13
 mtz_7_11:
  + 1 U7 - 1 U11 + 14 X_7_11
  <= 13
 mtz_7_12:
  + 1 U7 - 1 U12 + 14 X_7_12
  <= 13
 mtz_7_13:
  + 1 U7 - 1 U13 + 14 X_7_13
  <= 13
 mtz_7_14:
  + 1 U7 - 1 U14 + 14 X_7_14
  <= 13
 mtz_8_1:
  + 1 U8 - 1 U1 + 14 X_8_1
  <= 13
 mtz_8_2:
  + 1 U8 - 1 U2 + 14 X_8_2
  <= 13
 mtz_8_3:
  + 1 U8 - 1 U3 + 14 X_8_3
  <= 13
 mtz_8_4:
  + 1 U8 - 1 U4 + 14 X_8_4
  <= 13
 mtz_8_5:
  + 1 U8 - 1 U5 + 14 X_8_5
  <= 13
 mtz_8_6:
  + 1 U8 - 1 U6 + 14 X_8_6
  <= 13
 mtz_8_7:
  + 1 U8 - 1 U7 + 14 X_8_7
  <= 13
 mtz_8_9:
  + 1 U8 - 1 U9 + 14 X_8_9
  <= 13
 mtz_8_10:
  + 1 U8 - 1 U10 + 14 X_8_10
  <= 13
 mtz_8_11:
  + 1 U8 - 1 U11 + 14 X_8_11
  <= 13
 mtz_8_12:
  + 1 U8 - 1 U12 + 14 X_8_12
  <= 13
 mtz_8_13:
  + 1 U8 - 1 U13 + 14 X_8_13
  <= 13
 mtz_8_14:
  + 1 U8 - 1 U14 + 14 X_8_14
  <= 13
 mtz_9_1:
  + 1 U9 - 1 U1 + 14 X_9_1
  <= 13
 mtz_9_2:
  + 1 U9 - 1 U2 + 14 X_9_2
  <= 13
 mtz_9_3:
  + 1 U9 - 1 U3 + 14 X_9_3
  <= 13
 mtz_9_4:
  + 1 U9 - 1 U4 + 14 X_9_4
  <= 13
 mtz_9_5:
  + 1 U9 - 1 U5 + 14 X_9_5
  <= 13
 mtz_9_6:
  + 1 U9 - 1 U6 + 14 X_9_6
  <= 13
 mtz_9_7:
  + 1 U9 - 1 U7 + 14 X_9_7
  <= 13
 mtz_9_8:
  + 1 U9 - 1 U8 + 14 X_9_8
  <= 13
 mtz_9_10:
  + 1 U9 - 1 U10 + 14 X_9_10
  <= 13
 mtz_9_11:
  + 1 U9 - 1 U11 + 14 X_9_11
  <= 13
 mtz_9_12:
  + 1 U9 - 1 U12 + 14 X_9_12
  <= 13
 mtz_9_13:
  + 1 U9 - 1 U13 + 14 X_9_13
  <= 13
 mtz_9_14:
  + 1 U9 - 1 U14 + 14 X_9_14
  <= 13
 mtz_10_1:
  + 1 U10 - 1 U1 + 14 X_10_1
  <= 13
 mtz_10_2:
  + 1 U10 - 1 U2 + 14 X_10_2
  <= 13
 mtz_10_3:
  + 1 U10 - 1 U3 + 14 X_10_3
  <= 13
 mtz_10_4:
  + 1 U10 - 1 U4 + 14 X_10_4
  <= 13
 mtz_10_5:
  + 1 U10 - 1 U5 + 14 X_10_5
  <= 13
 mtz_10_6:
  + 1 U10 - 1 U6 + 14 X_10_6
  <= 13
 mtz_10_7:
  + 1 U10 - 1 U7 + 14 X_10_7
  <= 13
 mtz_10_8:
  + 1 U10 - 1 U8 + 14 X_10_8
  <= 13
 mtz_10_9:
  + 1 U10 - 1 U9 + 14 X_10_9
  <= 13
 mtz_10_11:
  + 1 U10 - 1 U11 + 14 X_10_11
  <= 13
 mtz_10_12:
  + 1 U10 - 1 U12 + 14 X_10_12
  <= 13
 mtz_10_13:
  + 1 U10 - 1 U13 + 14 X_10_13
  <= 13
 mtz_10_14:
  + 1 U10 - 1 U14 + 14 X_10_14
  <= 13
 mtz_11_1:
  + 1 U11 - 1 U1 + 14 X_11_1
  <= 13
 mtz_11_2:
  + 1 U11 - 1 U2 + 14 X_11_2
  <= 13
 mtz_11_3:
  + 1 U11 - 1 U3 + 14 X_11_3
  <= 13
 mtz_11_4:
  + 1 U11 - 1 U4 + 14 X_11_4
  <= 13
 mtz_11_5:
  + 1 U11 - 1 U5 + 14 X_11_5
  <= 13
 mtz_11_6:
  + 1 U11 - 1 U6 + 14 X_11_6
  <= 13
 mtz_11_7:
  + 1 U11 - 1 U7 + 14 X_11_7
  <= 13
 mtz_11_8:
  + 1 U11 - 1 U8 + 14 X_11_8
  <= 13
 mtz_11_9:
  + 1 U11 - 1 U9 + 14 X_11_9
  <= 13
 mtz_11_10:
  + 1 U11 - 1 U10 + 14 X_11_10
  <= 13
 mtz_11_12:
  + 1 U11 - 1 U12 + 14 X_11_12
  <= 13
 mtz_11_13:
  + 1 U11 - 1 U13 + 14 X_11_13
  <= 13
 mtz_11_14:
  + 1 U11 - 1 U14 + 14 X_11_14
  <= 13
 mtz_12_1:
  + 1 U12 - 1 U1 + 14 X_12_1
  <= 13
 mtz_12_2:
  + 1 U12 - 1 U2 + 14 X_12_2
  <= 13
 mtz_12_3:
  + 1 U12 - 1 U3 + 14 X_12_3
  <= 13
 mtz_12_4:
  + 1 U12 - 1 U4 + 14 X_12_4
  <= 13
 mtz_12_5:
  + 1 U12 - 1 U5 + 14 X_12_5
  <= 13
 mtz_12_6:
  + 1 U12 - 1 U6 + 14 X_12_6
  <= 13
 mtz_12_7:
  + 1 U12 - 1 U7 + 14 X_12_7
  <= 13
 mtz_12_8:
  + 1 U12 - 1 U8 + 14 X_12_8
  <= 13
 mtz_12_9:
  + 1 U12 - 1 U9 + 14 X_12_9
  <= 13
 mtz_12_10:
  + 1 U12 - 1 U10 + 14 X_12_10
  <= 13
 mtz_12_11:
  + 1 U12 - 1 U11 + 14 X_12_11
  <= 13
 mtz_12_13:
  + 1 U12 - 1 U13 + 14 X_12_13
  <= 13
 mtz_12_14:
  + 1 U12 - 1 U14 + 14 X_12_14
  <= 13
 mtz_13_1:
  + 1 U13 - 1 U1 + 14 X_13_1
  <= 13
 mtz_13_2:
  + 1 U13 - 1 U2 + 14 X_13_2
  <= 13
 mtz_13_3:
  + 1 U13 - 1 U3 + 14 X_13_3
  <= 13
 mtz_13_4:
  + 1 U13 - 1 U4 + 14 X_13_4
  <= 13
 mtz_13_5:
  + 1 U13 - 1 U5 + 14 X_13_5
  <= 13
 mtz_13_6:
  + 1 U13 - 1 U6 + 14 X_13_6
  <= 13
 mtz_13_7:
  + 1 U13 - 1 U7 + 14 X_13_7
  <= 13
 mtz_13_8:
  + 1 U13 - 1 U8 + 14 X_13_8
  <= 13
 mtz_13_9:
  + 1 U13 - 1 U9 + 14 X_13_9
  <= 13
 mtz_13_10:
  + 1 U13 - 1 U10 + 14 X_13_10
  <= 13
 mtz_13_11:
  + 1 U13 - 1 U11 + 14 X_13_11
  <= 13
 mtz_13_12:
  + 1 U13 - 1 U12 + 14 X_13_12
  <= 13
 mtz_13_14:
  + 1 U13 - 1 U14 + 14 X_13_14
  <= 13
 mtz_14_1:
  + 1 U14 - 1 U1 + 14 X_14_1
  <= 13
 mtz_14_2:
  + 1 U14 - 1 U2 + 14 X_14_2
  <= 13
 mtz_14_3:
  + 1 U14 - 1 U3 + 14 X_14_3
  <= 13
 mtz_14_4:
  + 1 U14 - 1 U4 + 14 X_14_4
  <= 13
 mtz_14_5:
  + 1 U14 - 1 U5 + 14 X_14_5
  <= 13
 mtz_14_6:
  + 1 U14 - 1 U6 + 14 X_14_6
  <= 13
 mtz_14_7:
  + 1 U14 - 1 U7 + 14 X_14_7
  <= 13
 mtz_14_8:
  + 1 U14 - 1 U8 + 14 X_14_8
  <= 13
 mtz_14_9:
  + 1 U14 - 1 U9 + 14 X_14_9
  <= 13
 mtz_14_10:
  + 1 U14 - 1 U10 + 14 X_14_10
  <= 13
 mtz_14_11:
  + 1 U14 - 1 U11 + 14 X_14_11
  <= 13
 mtz_14_12:
  + 1 U14 - 1 U12 + 14 X_14_12
  <= 13
 mtz_14_13:
  + 1 U14 - 1 U13 + 14 X_14_13
  <= 13
 obj1:
  + 706 X_0_1 + 310 X_0_2 + 371 X_0_3 + 400 X_0_4 + 562 X_0_5 + 822 X_0_6 + 471 X_0_7 + 869 X_0_8
  + 67 X_0_9 + 108 X_0_10 + 839 X_0_11 + 713 X_0_12 + 825 X_0_13 + 639 X_0_14 + 706 X_1_0 + 403 X_1_2
  + 345 X_1_3 + 326 X_1_4 + 277 X_1_5 + 427 X_1_6 + 275 X_1_7 + 254 X_1_8 + 773 X_1_9 + 607 X_1_10
  + 236 X_1_11 + 487 X_1_12 + 444 X_1_13 + 163 X_1_14 + 310 X_2_0 + 403 X_2_1 + 130 X_2_3 + 161 X_2_4
  + 337 X_2_5 + 546 X_2_6 + 163 X_2_7 + 599 X_2_8 + 378 X_2_9 + 206 X_2_10 + 530 X_2_11 + 564 X_2_12
  + 552 X_2_13 + 371 X_2_14 + 371 X_3_0 + 345 X_3_1 + 130 X_3_2 + 33 X_3_4 + 212 X_3_5 + 595 X_3_6
  + 201 X_3_7 + 499 X_3_8 + 437 X_3_9 + 285 X_3_10 + 523 X_3_11 + 434 X_3_12 + 605 X_3_13 + 269 X_3_14
  + 400 X_4_0 + 326 X_4_1 + 161 X_4_2 + 33 X_4_3 + 179 X_4_5 + 600 X_4_6 + 212 X_4_7 + 469 X_4_8
  + 465 X_4_9 + 317 X_4_10 + 515 X_4_11 + 404 X_4_12 + 611 X_4_13 + 239 X_4_14 + 562 X_5_0 + 277 X_5_1
  + 337 X_5_2 + 212 X_5_3 + 179 X_5_4 + 660 X_5_6 + 330 X_5_7 + 320 X_5_8 + 623 X_5_9 + 489 X_5_10
  + 509 X_5_11 + 253 X_5_12 + 674 X_5_13 + 121 X_5_14 + 822 X_6_0 + 427 X_6_1 + 546 X_6_2 + 595 X_6_3
  + 600 X_6_4 + 660 X_6_5 + 396 X_6_7 + 657 X_6_8 + 883 X_6_9 + 715 X_6_10 + 243 X_6_11 + 901 X_6_12
  + 17 X_6_13 + 574 X_6_14 + 471 X_7_0 + 275 X_7_1 + 163 X_7_2 + 201 X_7_3 + 212 X_7_4 + 330 X_7_5
  + 396 X_7_6 + 508 X_7_8 + 538 X_7_9 + 364 X_7_10 + 368 X_7_11 + 583 X_7_12 + 405 X_7_13 + 306 X_7_14
  + 869 X_8_0 + 254 X_8_1 + 599 X_8_2 + 499 X_8_3 + 469 X_8_4 + 320 X_8_5 + 657 X_8_6 + 508 X_8_7
  + 933 X_8_9 + 785 X_8_10 + 426 X_8_11 + 386 X_8_12 + 675 X_8_13 + 230 X_8_14 + 67 X_9_0 + 773 X_9_1
  + 378 X_9_2 + 437 X_9_3 + 465 X_9_4 + 623 X_9_5 + 883 X_9_6 + 538 X_9_7 + 933 X_9_8 + 174 X_9_10
  + 906 X_9_11 + 761 X_9_12 + 886 X_9_13 + 704 X_9_14 + 108 X_10_0 + 607 X_10_1 + 206 X_10_2 + 285 X_10_3
  + 317 X_10_4 + 489 X_10_5 + 715 X_10_6 + 364 X_10_7 + 785 X_10_8 + 174 X_10_9 + 732 X_10_11 + 669 X_10_12
  + 719 X_10_13 + 554 X_10_14 + 839 X_11_0 + 236 X_11_1 + 530 X_11_2 + 523 X_11_3 + 515 X_11_4 + 509 X_11_5
  + 243 X_11_6 + 368 X_11_7 + 426 X_11_8 + 906 X_11_9 + 732 X_11_10 + 722 X_11_12 + 260 X_11_13 + 399 X_11_14
  + 713 X_12_0 + 487 X_12_1 + 564 X_12_2 + 434 X_12_3 + 404 X_12_4 + 253 X_12_5 + 901 X_12_6 + 583 X_12_7
  + 386 X_12_8 + 761 X_12_9 + 669 X_12_10 + 722 X_12_11 + 916 X_12_13 + 328 X_12_14 + 825 X_13_0 + 444 X_13_1
  + 552 X_13_2 + 605 X_13_3 + 611 X_13_4 + 674 X_13_5 + 17 X_13_6 + 405 X_13_7 + 675 X_13_8 + 886 X_13_9
  + 719 X_13_10 + 260 X_13_11 + 916 X_13_12 + 589 X_13_14 + 639 X_14_0 + 163 X_14_1 + 371 X_14_2 + 269 X_14_3
  + 239 X_14_4 + 121 X_14_5 + 574 X_14_6 + 306 X_14_7 + 230 X_14_8 + 704 X_14_9 + 554 X_14_10 + 399 X_14_11
  + 328 X_14_12 + 589 X_14_13
  <= 1
 obj2:
  + 339 X_0_1 + 441 X_0_2 + 396 X_0_3 + 579 X_0_4 + 390 X_0_5 + 459 X_0_6 + 529 X_0_7 + 238 X_0_8
  + 433 X_0_9 + 323 X_0_10 + 483 X_0_11 + 191 X_0_12 + 394 X_0_13 + 158 X_0_14 + 339 X_1_0 + 730 X_1_2
  + 365 X_1_3 + 658 X_1_4 + 507 X_1_5 + 760 X_1_6 + 239 X_1_7 + 486 X_1_8 + 719 X_1_9 + 539 X_1_10
  + 415 X_1_11 + 489 X_1_12 + 713 X_1_13 + 302 X_1_14 + 441 X_2_0 + 730 X_2_1 + 534 X_2_3 + 942 X_2_4
  + 357 X_2_5 + 47 X_2_6 + 953 X_2_7 + 245 X_2_8 + 593 X_2_9 + 641 X_2_10 + 599 X_2_11 + 481 X_2_12
  + 113 X_2_13 + 591 X_2_14 + 396 X_3_0 + 365 X_3_1 + 534 X_3_2 + 935 X_3_4 + 195 X_3_5 + 577 X_3_6
  + 597 X_3_7 + 322 X_3_8 + 822 X_3_9 + 715 X_3_10 + 88 X_3_11 + 585 X_3_12 + 575 X_3_13 + 497 X_3_14
  + 579 X_4_0 + 658 X_4_1 + 942 X_4_2 + 935 X_4_3 + 969 X_4_5 + 939 X_4_6 + 618 X_4_7 + 806 X_4_8
  + 440 X_4_9 + 301 X_4_10 + 1013 X_4_11 + 462 X_4_12 + 849 X_4_13 + 440 X_4_14 + 390 X_5_0 + 507 X_5_1
  + 357 X_5_2 + 195 X_5_3 + 969 X_5_4 + 403 X_5_6 + 747 X_5_7 + 203 X_5_8 + 764 X_5_9 + 707 X_5_10
  + 245 X_5_11 + 552 X_5_12 + 420 X_5_13 + 534 X_5_14 + 459 X_6_0 + 760 X_6_1 + 47 X_6_2 + 577 X_6_3
  + 939 X_6_4 + 403 X_6_5 + 979 X_6_7 + 280 X_6_8 + 574 X_6_9 + 637 X_6_10 + 644 X_6_11 + 481 X_6_12
  + 92 X_6_13 + 605 X_6_14 + 529 X_7_0 + 239 X_7_1 + 953 X_7_2 + 597 X_7_3 + 618 X_7_4 + 747 X_7_5
  + 979 X_7_6 + 714 X_7_8 + 821 X_7_9 + 616 X_7_10 + 633 X_7_11 + 627 X_7_12 + 922 X_7_13 + 427 X_7_14
  + 238 X_8_0 + 486 X_8_1 + 245 X_8_2 + 322 X_8_3 + 806 X_8_4 + 203 X_8_5 + 280 X_8_6 + 714 X_8_7
  + 562 X_8_9 + 525 X_8_10 + 402 X_8_11 + 363 X_8_12 + 257 X_8_13 + 396 X_8_14 + 433 X_9_0 + 719 X_9_1
  + 593 X_9_2 + 822 X_9_3 + 440 X_9_4 + 764 X_9_5 + 574 X_9_6 + 821 X_9_7 + 562 X_9_8 + 209 X_9_10
  + 910 X_9_11 + 242 X_9_12 + 483 X_9_13 + 417 X_9_14 + 323 X_10_0 + 539 X_10_1 + 641 X_10_2 + 715 X_10_3
  + 301 X_10_4 + 707 X_10_5 + 637 X_10_6 + 616 X_10_7 + 525 X_10_8 + 209 X_10_9 + 802 X_10_11 + 165 X_10_12
  + 547 X_10_13 + 242 X_10_14 + 483 X_11_0 + 415 X_11_1 + 599 X_11_2 + 88 X_11_3 + 1013 X_11_4 + 245 X_11_5
  + 644 X_11_6 + 633 X_11_7 + 402 X_11_8 + 910 X_11_9 + 802 X_11_10 + 673 X_11_12 + 650 X_11_13 + 579 X_11_14
  + 191 X_12_0 + 489 X_12_1 + 481 X_12_2 + 585 X_12_3 + 462 X_12_4 + 552 X_12_5 + 481 X_12_6 + 627 X_12_7
  + 363 X_12_8 + 242 X_12_9 + 165 X_12_10 + 673 X_12_11 + 394 X_12_13 + 200 X_12_14 + 394 X_13_0 + 713 X_13_1
  + 113 X_13_2 + 575 X_13_3 + 849 X_13_4 + 420 X_13_5 + 92 X_13_6 + 922 X_13_7 + 257 X_13_8 + 483 X_13_9
  + 547 X_13_10 + 650 X_13_11 + 394 X_13_12 + 532 X_13_14 + 158 X_14_0 + 302 X_14_1 + 591 X_14_2 + 497 X_14_3
  + 440 X_14_4 + 534 X_14_5 + 605 X_14_6 + 427 X_14_7 + 396 X_14_8 + 417 X_14_9 + 242 X_14_10 + 579 X_14_11
  + 200 X_14_12 + 532 X_14_13
  <= 2
 obj3:
  + 970 X_0_1 + 464 X_0_2 + 892 X_0_3 + 727 X_0_4 + 182 X_0_5 + 454 X_0_6 + 335 X_0_7 + 617 X_0_8
  + 624 X_0_9 + 567 X_0_10 + 538 X_0_11 + 746 X_0_12 + 758 X_0_13 + 447 X_0_14 + 970 X_1_0 + 539 X_1_2
  + 452 X_1_3 + 298 X_1_4 + 817 X_1_5 + 709 X_1_6 + 997 X_1_7 + 1004 X_1_8 + 538 X_1_9 + 543 X_1_10
  + 432 X_1_11 + 425 X_1_12 + 287 X_1_13 + 551 X_1_14 + 464 X_2_0 + 539 X_2_1 + 448 X_2_3 + 266 X_2_4
  + 360 X_2_5 + 214 X_2_6 + 463 X_2_7 + 778 X_2_8 + 456 X_2_9 + 151 X_2_10 + 148 X_2_11 + 295 X_2_12
  + 296 X_2_13 + 245 X_2_14 + 892 X_3_0 + 452 X_3_1 + 448 X_3_2 + 277 X_3_4 + 808 X_3_5 + 470 X_3_6
  + 764 X_3_7 + 1190 X_3_8 + 776 X_3_9 + 325 X_3_10 + 475 X_3_11 + 152 X_3_12 + 249 X_3_13 + 641 X_3_14
  + 727 X_4_0 + 298 X_4_1 + 266 X_4_2 + 277 X_4_3 + 603 X_4_5 + 412 X_4_6 + 706 X_4_7 + 926 X_4_8
  + 499 X_4_9 + 244 X_4_10 + 221 X_4_11 + 164 X_4_12 + 34 X_4_13 + 386 X_4_14 + 182 X_5_0 + 817 X_5_1
  + 360 X_5_2 + 808 X_5_3 + 603 X_5_4 + 435 X_5_6 + 442 X_5_7 + 506 X_5_8 + 442 X_5_9 + 495 X_5_10
  + 393 X_5_11 + 656 X_5_12 + 636 X_5_13 + 274 X_5_14 + 454 X_6_0 + 709 X_6_1 + 214 X_6_2 + 470 X_6_3
  + 412 X_6_4 + 435 X_6_5 + 302 X_6_7 + 921 X_6_8 + 661 X_6_9 + 172 X_6_10 + 362 X_6_11 + 347 X_6_12
  + 430 X_6_13 + 437 X_6_14 + 335 X_7_0 + 997 X_7_1 + 463 X_7_2 + 764 X_7_3 + 706 X_7_4 + 442 X_7_5
  + 302 X_7_6 + 939 X_7_8 + 826 X_7_9 + 473 X_7_10 + 601 X_7_11 + 649 X_7_12 + 727 X_7_13 + 603 X_7_14
  + 617 X_8_0 + 1004 X_8_1 + 778 X_8_2 + 1190 X_8_3 + 926 X_8_4 + 506 X_8_5 + 921 X_8_6 + 939 X_8_7
  + 466 X_8_9 + 929 X_8_10 + 715 X_8_11 + 1043 X_8_12 + 959 X_8_13 + 550 X_8_14 + 624 X_9_0 + 538 X_9_1
  + 456 X_9_2 + 776 X_9_3 + 499 X_9_4 + 442 X_9_5 + 661 X_9_6 + 826 X_9_7 + 466 X_9_8 + 590 X_9_10
  + 331 X_9_11 + 645 X_9_12 + 529 X_9_13 + 228 X_9_14 + 567 X_10_0 + 543 X_10_1 + 151 X_10_2 + 325 X_10_3
  + 244 X_10_4 + 495 X_10_5 + 172 X_10_6 + 473 X_10_7 + 929 X_10_8 + 590 X_10_9 + 260 X_10_11 + 184 X_10_12
  + 259 X_10_13 + 392 X_10_14 + 538 X_11_0 + 432 X_11_1 + 148 X_11_2 + 475 X_11_3 + 221 X_11_4 + 393 X_11_5
  + 362 X_11_6 + 601 X_11_7 + 715 X_11_8 + 331 X_11_9 + 260 X_11_10 + 329 X_11_12 + 255 X_11_13 + 167 X_11_14
  + 746 X_12_0 + 425 X_12_1 + 295 X_12_2 + 152 X_12_3 + 164 X_12_4 + 656 X_12_5 + 347 X_12_6 + 649 X_12_7
  + 1043 X_12_8 + 645 X_12_9 + 184 X_12_10 + 329 X_12_11 + 152 X_12_13 + 493 X_12_14 + 758 X_13_0 + 287 X_13_1
  + 296 X_13_2 + 249 X_13_3 + 34 X_13_4 + 636 X_13_5 + 430 X_13_6 + 727 X_13_7 + 959 X_13_8 + 529 X_13_9
  + 259 X_13_10 + 255 X_13_11 + 152 X_13_12 + 420 X_13_14 + 447 X_14_0 + 551 X_14_1 + 245 X_14_2 + 641 X_14_3
  + 386 X_14_4 + 274 X_14_5 + 437 X_14_6 + 603 X_14_7 + 550 X_14_8 + 228 X_14_9 + 392 X_14_10 + 167 X_14_11
  + 493 X_14_12 + 420 X_14_13
  <= 3
 obj4:
  + 728 X_0_1 + 464 X_0_2 + 284 X_0_3 + 290 X_0_4 + 750 X_0_5 + 428 X_0_6 + 788 X_0_7 + 116 X_0_8
  + 917 X_0_9 + 649 X_0_10 + 256 X_0_11 + 783 X_0_12 + 623 X_0_13 + 438 X_0_14 + 728 X_1_0 + 476 X_1_2
  + 484 X_1_3 + 675 X_1_4 + 262 X_1_5 + 667 X_1_6 + 471 X_1_7 + 638 X_1_8 + 452 X_1_9 + 460 X_1_10
  + 849 X_1_11 + 177 X_1_12 + 481 X_1_13 + 916 X_1_14 + 464 X_2_0 + 476 X_2_1 + 203 X_2_3 + 618 X_2_4
  + 658 X_2_5 + 194 X_2_6 + 326 X_2_7 + 348 X_2_8 + 468 X_2_9 + 185 X_2_10 + 446 X_2_11 + 622 X_2_12
  + 159 X_2_13 + 457 X_2_14 + 284 X_3_0 + 484 X_3_1 + 203 X_3_2 + 416 X_3_4 + 586 X_3_5 + 278 X_3_6
  + 512 X_3_7 + 172 X_3_8 + 634 X_3_9 + 378 X_3_10 + 365 X_3_11 + 584 X_3_12 + 358 X_3_13 + 460 X_3_14
  + 290 X_4_0 + 675 X_4_1 + 618 X_4_2 + 416 X_4_3 + 595 X_4_5 + 660 X_4_6 + 903 X_4_7 + 338 X_4_8
  + 996 X_4_9 + 782 X_4_10 + 546 X_4_11 + 661 X_4_12 + 768 X_4_13 + 725 X_4_14 + 750 X_5_0 + 262 X_5_1
  + 658 X_5_2 + 586 X_5_3 + 595 X_5_4 + 831 X_5_6 + 727 X_5_7 + 693 X_5_8 + 715 X_5_9 + 694 X_5_10
  + 936 X_5_11 + 106 X_5_12 + 708 X_5_13 + 1046 X_5_14 + 428 X_6_0 + 667 X_6_1 + 194 X_6_2 + 278 X_6_3
  + 660 X_6_4 + 831 X_6_5 + 460 X_6_7 + 330 X_6_8 + 619 X_6_9 + 324 X_6_10 + 306 X_6_11 + 806 X_6_12
  + 288 X_6_13 + 268 X_6_14 + 788 X_7_0 + 471 X_7_1 + 326 X_7_2 + 512 X_7_3 + 903 X_7_4 + 727 X_7_5
  + 460 X_7_6 + 671 X_7_8 + 163 X_7_9 + 142 X_7_10 + 757 X_7_11 + 648 X_7_12 + 175 X_7_13 + 719 X_7_14
  + 116 X_8_0 + 638 X_8_1 + 348 X_8_2 + 172 X_8_3 + 338 X_8_4 + 693 X_8_5 + 330 X_8_6 + 671 X_8_7
  + 802 X_8_9 + 532 X_8_10 + 249 X_8_11 + 712 X_8_12 + 507 X_8_13 + 401 X_8_14 + 917 X_9_0 + 452 X_9_1
  + 468 X_9_2 + 634 X_9_3 + 996 X_9_4 + 715 X_9_5 + 619 X_9_6 + 163 X_9_7 + 802 X_9_8 + 296 X_9_10
  + 910 X_9_11 + 622 X_9_12 + 331 X_9_13 + 882 X_9_14 + 649 X_10_0 + 460 X_10_1 + 185 X_10_2 + 378 X_10_3
  + 782 X_10_4 + 694 X_10_5 + 324 X_10_6 + 142 X_10_7 + 532 X_10_8 + 296 X_10_9 + 616 X_10_11 + 632 X_10_12
  + 36 X_10_13 + 589 X_10_14 + 256 X_11_0 + 849 X_11_1 + 446 X_11_2 + 365 X_11_3 + 546 X_11_4 + 936 X_11_5
  + 306 X_11_6 + 757 X_11_7 + 249 X_11_8 + 910 X_11_9 + 616 X_11_10 + 945 X_11_12 + 582 X_11_13 + 189 X_11_14
  + 783 X_12_0 + 177 X_12_1 + 622 X_12_2 + 584 X_12_3 + 661 X_12_4 + 106 X_12_5 + 806 X_12_6 + 648 X_12_7
  + 712 X_12_8 + 622 X_12_9 + 632 X_12_10 + 945 X_12_11 + 650 X_12_13 + 1038 X_12_14 + 623 X_13_0 + 481 X_13_1
  + 159 X_13_2 + 358 X_13_3 + 768 X_13_4 + 708 X_13_5 + 288 X_13_6 + 175 X_13_7 + 507 X_13_8 + 331 X_13_9
  + 36 X_13_10 + 582 X_13_11 + 650 X_13_12 + 553 X_13_14 + 438 X_14_0 + 916 X_14_1 + 457 X_14_2 + 460 X_14_3
  + 725 X_14_4 + 1046 X_14_5 + 268 X_14_6 + 719 X_14_7 + 401 X_14_8 + 882 X_14_9 + 589 X_14_10 + 189 X_14_11
  + 1038 X_14_12 + 553 X_14_13
  <= 4
Bounds
 1 <= U1 <= 14
 1 <= U2 <= 14
 1 <= U3 <= 14
 1 <= U4 <= 14
 1 <= U5 <= 14
 1 <= U6 <= 14
 1 <= U7 <= 14
 1 <= U8 <= 14
 1 <= U9 <= 14
 1 <= U10 <= 14
 1 <= U11 <= 14
 1 <= U12 <= 14
 1 <= U13 <= 14
 1 <= U14 <= 14
Binary
 X_0_1
 X_0_2
 X_0_3
 X_0_4
 X_0_5
 X_0_6
 X_0_7
 X_0_8
 X_0_9
 X_0_10
 X_0_11
 X_0_12
 X_0_13
 X_0_14
 X_1_0
 X_1_2
 X_1_3
 X_1_4
 X_1_5
 X_1_6
 X_1_7
 X_1_8
 X_1_9
 X_1_10
 X_1_11
 X_1_12
 X_1_13
 X_1_14
 X_2_0
 X_2_1
 X_2_3
 X_2_4
 X_2_5
 X_2_6
 X_2_7
 X_2_8
 X_2_9
 X_2_10
 X_2_11
 X_2_12
 X_2_13
 X_2_14
 X_3_0
 X_3_1
 X_3_2
 X_3_4
 X_3_5
 X_3_6
 X_3_7
 X_3_8
 X_3_9
 X_3_10
 X_3_11
 X_3_12
 X_3_13
 X_3_14
 X_4_0
 X_4_1
 X_4_2
 X_4_3
 X_4_5
 X_4_6
 X_4_7
 X_4_8
 X_4_9
 X_4_10
 X_4_11
 X_4_12
 X_4_13
 X_4_14
 X_5_0
 X_5_1
 X_5_2
 X_5_3
 X_5_4
 X_5_6
 X_5_7
 X_5_8
 X_5_9
 X_5_10
 X_5_11
 X_5_12
 X_5_13
 X_5_14
 X_6_0
 X_6_1
 X_6_2
 X_6_3
 X_6_4
 X_6_5
 X_6_7
 X_6_8
 X_6_9
 X_6_10
 X_6_11
 X_6_12
 X_6_13
 X_6_14
 X_7_0
 X_7_1
 X_7_2
 X_7_3
 X_7_4
 X_7_5
 X_7_6
 X_7_8
 X_7_9
 X_7_10
 X_7_11
 X_7_12
 X_7_13
 X_7_14
 X_8_0
 X_8_1
 X_8_2
 X_8_3
 X_8_4
 X_8_5
 X_8_6
 X_8_7
 X_8_9
 X_8_10
 X_8_11
 X_8_12
 X_8_13
 X_8_14
 X_9_0
 X_9_1
 X_9_2
 X_9_3
 X_9_4
 X_9_5
 X_9_6
 X_9_7
 X_9_8
 X_9_10
 X_9_11
 X_9_12
 X_9_13
 X_9_14
 X_10_0
 X_10_1
 X_10_2
 X_10_3
 X_10_4
 X_10_5
 X_10_6
 X_10_7
 X_10_8
 X_10_9
 X_10_11
 X_10_12
 X_10_13
 X_10_14
 X_11_0
 X_11_1
 X_11_2
 X_11_3
 X_11_4
 X_11_5
 X_11_6
 X_11_7
 X_11_8
 X_11_9
 X_11_10
 X_11_12
 X_11_13
 X_11_14
 X_12_0
 X_12_1
 X_12_2
 X_12_3
 X_12_4
 X_12_5
 X_12_6
 X_12_7
 X_12_8
 X_12_9
 X_12_10
 X_12_11
 X_12_13
 X_12_14
 X_13_0
 X_13_1
 X_13_2
 X_13_3
 X_13_4
 X_13_5
 X_13_6
 X_13_7
 X_13_8
 X_13_9
 X_13_10
 X_13_11
 X_13_12
 X_13_14
 X_14_0
 X_14_1
 X_14_2
 X_14_3
 X_14_4
 X_14_5
 X_14_6
 X_14_7
 X_14_8
 X_14_9
 X_14_10
 X_14_11
 X_14_12
 X_14_13
End
